Maximize 
c_n2_e2_e3_e5_ + c_n9_e6_e7_e8_ + c_n9_e6_e7_e11_ + c_n9_e7_e8_e11_ + c_n9_e6_e8_e11_ 
Subject To 
x_e2e3 + x_e3e5 - x_e2e5 >= 0
- x_e2e3 - x_e3e5 + x_e2e5 >= - 1
x_e2e3 + x_e3e7 - x_e2e7 >= 0
- x_e2e3 - x_e3e7 + x_e2e7 >= - 1
x_e2e3 + x_e3e6 - x_e2e6 >= 0
- x_e2e3 - x_e3e6 + x_e2e6 >= - 1
x_e2e3 + x_e3e8 - x_e2e8 >= 0
- x_e2e3 - x_e3e8 + x_e2e8 >= - 1
x_e2e3 + x_e3e11 - x_e2e11 >= 0
- x_e2e3 - x_e3e11 + x_e2e11 >= - 1
x_e2e5 + x_e5e7 - x_e2e7 >= 0
- x_e2e5 - x_e5e7 + x_e2e7 >= - 1
x_e2e5 + x_e5e6 - x_e2e6 >= 0
- x_e2e5 - x_e5e6 + x_e2e6 >= - 1
x_e2e5 + x_e5e8 - x_e2e8 >= 0
- x_e2e5 - x_e5e8 + x_e2e8 >= - 1
x_e2e5 + x_e5e11 - x_e2e11 >= 0
- x_e2e5 - x_e5e11 + x_e2e11 >= - 1
x_e2e7 + x_e7e6 - x_e2e6 >= 0
- x_e2e7 - x_e7e6 + x_e2e6 >= - 1
x_e2e7 + x_e7e8 - x_e2e8 >= 0
- x_e2e7 - x_e7e8 + x_e2e8 >= - 1
x_e2e7 + x_e7e11 - x_e2e11 >= 0
- x_e2e7 - x_e7e11 + x_e2e11 >= - 1
x_e2e6 + x_e6e8 - x_e2e8 >= 0
- x_e2e6 - x_e6e8 + x_e2e8 >= - 1
x_e2e6 + x_e6e11 - x_e2e11 >= 0
- x_e2e6 - x_e6e11 + x_e2e11 >= - 1
x_e2e8 + x_e8e11 - x_e2e11 >= 0
- x_e2e8 - x_e8e11 + x_e2e11 >= - 1
x_e3e5 + x_e5e7 - x_e3e7 >= 0
- x_e3e5 - x_e5e7 + x_e3e7 >= - 1
x_e3e5 + x_e5e6 - x_e3e6 >= 0
- x_e3e5 - x_e5e6 + x_e3e6 >= - 1
x_e3e5 + x_e5e8 - x_e3e8 >= 0
- x_e3e5 - x_e5e8 + x_e3e8 >= - 1
x_e3e5 + x_e5e11 - x_e3e11 >= 0
- x_e3e5 - x_e5e11 + x_e3e11 >= - 1
x_e3e7 + x_e7e6 - x_e3e6 >= 0
- x_e3e7 - x_e7e6 + x_e3e6 >= - 1
x_e3e7 + x_e7e8 - x_e3e8 >= 0
- x_e3e7 - x_e7e8 + x_e3e8 >= - 1
x_e3e7 + x_e7e11 - x_e3e11 >= 0
- x_e3e7 - x_e7e11 + x_e3e11 >= - 1
x_e3e6 + x_e6e8 - x_e3e8 >= 0
- x_e3e6 - x_e6e8 + x_e3e8 >= - 1
x_e3e6 + x_e6e11 - x_e3e11 >= 0
- x_e3e6 - x_e6e11 + x_e3e11 >= - 1
x_e3e8 + x_e8e11 - x_e3e11 >= 0
- x_e3e8 - x_e8e11 + x_e3e11 >= - 1
x_e5e7 + x_e7e6 - x_e5e6 >= 0
- x_e5e7 - x_e7e6 + x_e5e6 >= - 1
x_e5e7 + x_e7e8 - x_e5e8 >= 0
- x_e5e7 - x_e7e8 + x_e5e8 >= - 1
x_e5e7 + x_e7e11 - x_e5e11 >= 0
- x_e5e7 - x_e7e11 + x_e5e11 >= - 1
x_e5e6 + x_e6e8 - x_e5e8 >= 0
- x_e5e6 - x_e6e8 + x_e5e8 >= - 1
x_e5e6 + x_e6e11 - x_e5e11 >= 0
- x_e5e6 - x_e6e11 + x_e5e11 >= - 1
x_e5e8 + x_e8e11 - x_e5e11 >= 0
- x_e5e8 - x_e8e11 + x_e5e11 >= - 1
x_e7e6 + x_e6e8 - x_e7e8 >= 0
- x_e7e6 - x_e6e8 + x_e7e8 >= - 1
x_e7e6 + x_e6e11 - x_e7e11 >= 0
- x_e7e6 - x_e6e11 + x_e7e11 >= - 1
x_e7e8 + x_e8e11 - x_e7e11 >= 0
- x_e7e8 - x_e8e11 + x_e7e11 >= - 1
x_e6e8 + x_e8e11 - x_e6e11 >= 0
- x_e6e8 - x_e8e11 + x_e6e11 >= - 1
y_n0n1 + y_n1n2 - y_n0n2 >= 0
- y_n0n1 - y_n1n2 + y_n0n2 >= - 1
y_n0n1 + y_n1n3 - y_n0n3 >= 0
- y_n0n1 - y_n1n3 + y_n0n3 >= - 1
y_n0n1 + y_n1n4 - y_n0n4 >= 0
- y_n0n1 - y_n1n4 + y_n0n4 >= - 1
y_n0n1 + y_n1n5 - y_n0n5 >= 0
- y_n0n1 - y_n1n5 + y_n0n5 >= - 1
y_n0n1 + y_n1n6 - y_n0n6 >= 0
- y_n0n1 - y_n1n6 + y_n0n6 >= - 1
y_n0n1 + y_n1n7 - y_n0n7 >= 0
- y_n0n1 - y_n1n7 + y_n0n7 >= - 1
y_n0n1 + y_n1n8 - y_n0n8 >= 0
- y_n0n1 - y_n1n8 + y_n0n8 >= - 1
y_n0n1 + y_n1n9 - y_n0n9 >= 0
- y_n0n1 - y_n1n9 + y_n0n9 >= - 1
y_n0n1 + y_n1n10 - y_n0n10 >= 0
- y_n0n1 - y_n1n10 + y_n0n10 >= - 1
y_n0n1 + y_n1n11 - y_n0n11 >= 0
- y_n0n1 - y_n1n11 + y_n0n11 >= - 1
y_n0n2 + y_n2n3 - y_n0n3 >= 0
- y_n0n2 - y_n2n3 + y_n0n3 >= - 1
y_n0n2 + y_n2n4 - y_n0n4 >= 0
- y_n0n2 - y_n2n4 + y_n0n4 >= - 1
y_n0n2 + y_n2n5 - y_n0n5 >= 0
- y_n0n2 - y_n2n5 + y_n0n5 >= - 1
y_n0n2 + y_n2n6 - y_n0n6 >= 0
- y_n0n2 - y_n2n6 + y_n0n6 >= - 1
y_n0n2 + y_n2n7 - y_n0n7 >= 0
- y_n0n2 - y_n2n7 + y_n0n7 >= - 1
y_n0n2 + y_n2n8 - y_n0n8 >= 0
- y_n0n2 - y_n2n8 + y_n0n8 >= - 1
y_n0n2 + y_n2n9 - y_n0n9 >= 0
- y_n0n2 - y_n2n9 + y_n0n9 >= - 1
y_n0n2 + y_n2n10 - y_n0n10 >= 0
- y_n0n2 - y_n2n10 + y_n0n10 >= - 1
y_n0n2 + y_n2n11 - y_n0n11 >= 0
- y_n0n2 - y_n2n11 + y_n0n11 >= - 1
y_n0n3 + y_n3n4 - y_n0n4 >= 0
- y_n0n3 - y_n3n4 + y_n0n4 >= - 1
y_n0n3 + y_n3n5 - y_n0n5 >= 0
- y_n0n3 - y_n3n5 + y_n0n5 >= - 1
y_n0n3 + y_n3n6 - y_n0n6 >= 0
- y_n0n3 - y_n3n6 + y_n0n6 >= - 1
y_n0n3 + y_n3n7 - y_n0n7 >= 0
- y_n0n3 - y_n3n7 + y_n0n7 >= - 1
y_n0n3 + y_n3n8 - y_n0n8 >= 0
- y_n0n3 - y_n3n8 + y_n0n8 >= - 1
y_n0n3 + y_n3n9 - y_n0n9 >= 0
- y_n0n3 - y_n3n9 + y_n0n9 >= - 1
y_n0n3 + y_n3n10 - y_n0n10 >= 0
- y_n0n3 - y_n3n10 + y_n0n10 >= - 1
y_n0n3 + y_n3n11 - y_n0n11 >= 0
- y_n0n3 - y_n3n11 + y_n0n11 >= - 1
y_n0n4 + y_n4n5 - y_n0n5 >= 0
- y_n0n4 - y_n4n5 + y_n0n5 >= - 1
y_n0n4 + y_n4n6 - y_n0n6 >= 0
- y_n0n4 - y_n4n6 + y_n0n6 >= - 1
y_n0n4 + y_n4n7 - y_n0n7 >= 0
- y_n0n4 - y_n4n7 + y_n0n7 >= - 1
y_n0n4 + y_n4n8 - y_n0n8 >= 0
- y_n0n4 - y_n4n8 + y_n0n8 >= - 1
y_n0n4 + y_n4n9 - y_n0n9 >= 0
- y_n0n4 - y_n4n9 + y_n0n9 >= - 1
y_n0n4 + y_n4n10 - y_n0n10 >= 0
- y_n0n4 - y_n4n10 + y_n0n10 >= - 1
y_n0n4 + y_n4n11 - y_n0n11 >= 0
- y_n0n4 - y_n4n11 + y_n0n11 >= - 1
y_n0n5 + y_n5n6 - y_n0n6 >= 0
- y_n0n5 - y_n5n6 + y_n0n6 >= - 1
y_n0n5 + y_n5n7 - y_n0n7 >= 0
- y_n0n5 - y_n5n7 + y_n0n7 >= - 1
y_n0n5 + y_n5n8 - y_n0n8 >= 0
- y_n0n5 - y_n5n8 + y_n0n8 >= - 1
y_n0n5 + y_n5n9 - y_n0n9 >= 0
- y_n0n5 - y_n5n9 + y_n0n9 >= - 1
y_n0n5 + y_n5n10 - y_n0n10 >= 0
- y_n0n5 - y_n5n10 + y_n0n10 >= - 1
y_n0n5 + y_n5n11 - y_n0n11 >= 0
- y_n0n5 - y_n5n11 + y_n0n11 >= - 1
y_n0n6 + y_n6n7 - y_n0n7 >= 0
- y_n0n6 - y_n6n7 + y_n0n7 >= - 1
y_n0n6 + y_n6n8 - y_n0n8 >= 0
- y_n0n6 - y_n6n8 + y_n0n8 >= - 1
y_n0n6 + y_n6n9 - y_n0n9 >= 0
- y_n0n6 - y_n6n9 + y_n0n9 >= - 1
y_n0n6 + y_n6n10 - y_n0n10 >= 0
- y_n0n6 - y_n6n10 + y_n0n10 >= - 1
y_n0n6 + y_n6n11 - y_n0n11 >= 0
- y_n0n6 - y_n6n11 + y_n0n11 >= - 1
y_n0n7 + y_n7n8 - y_n0n8 >= 0
- y_n0n7 - y_n7n8 + y_n0n8 >= - 1
y_n0n7 + y_n7n9 - y_n0n9 >= 0
- y_n0n7 - y_n7n9 + y_n0n9 >= - 1
y_n0n7 + y_n7n10 - y_n0n10 >= 0
- y_n0n7 - y_n7n10 + y_n0n10 >= - 1
y_n0n7 + y_n7n11 - y_n0n11 >= 0
- y_n0n7 - y_n7n11 + y_n0n11 >= - 1
y_n0n8 + y_n8n9 - y_n0n9 >= 0
- y_n0n8 - y_n8n9 + y_n0n9 >= - 1
y_n0n8 + y_n8n10 - y_n0n10 >= 0
- y_n0n8 - y_n8n10 + y_n0n10 >= - 1
y_n0n8 + y_n8n11 - y_n0n11 >= 0
- y_n0n8 - y_n8n11 + y_n0n11 >= - 1
y_n0n9 + y_n9n10 - y_n0n10 >= 0
- y_n0n9 - y_n9n10 + y_n0n10 >= - 1
y_n0n9 + y_n9n11 - y_n0n11 >= 0
- y_n0n9 - y_n9n11 + y_n0n11 >= - 1
y_n0n10 + y_n10n11 - y_n0n11 >= 0
- y_n0n10 - y_n10n11 + y_n0n11 >= - 1
y_n1n2 + y_n2n3 - y_n1n3 >= 0
- y_n1n2 - y_n2n3 + y_n1n3 >= - 1
y_n1n2 + y_n2n4 - y_n1n4 >= 0
- y_n1n2 - y_n2n4 + y_n1n4 >= - 1
y_n1n2 + y_n2n5 - y_n1n5 >= 0
- y_n1n2 - y_n2n5 + y_n1n5 >= - 1
y_n1n2 + y_n2n6 - y_n1n6 >= 0
- y_n1n2 - y_n2n6 + y_n1n6 >= - 1
y_n1n2 + y_n2n7 - y_n1n7 >= 0
- y_n1n2 - y_n2n7 + y_n1n7 >= - 1
y_n1n2 + y_n2n8 - y_n1n8 >= 0
- y_n1n2 - y_n2n8 + y_n1n8 >= - 1
y_n1n2 + y_n2n9 - y_n1n9 >= 0
- y_n1n2 - y_n2n9 + y_n1n9 >= - 1
y_n1n2 + y_n2n10 - y_n1n10 >= 0
- y_n1n2 - y_n2n10 + y_n1n10 >= - 1
y_n1n2 + y_n2n11 - y_n1n11 >= 0
- y_n1n2 - y_n2n11 + y_n1n11 >= - 1
y_n1n3 + y_n3n4 - y_n1n4 >= 0
- y_n1n3 - y_n3n4 + y_n1n4 >= - 1
y_n1n3 + y_n3n5 - y_n1n5 >= 0
- y_n1n3 - y_n3n5 + y_n1n5 >= - 1
y_n1n3 + y_n3n6 - y_n1n6 >= 0
- y_n1n3 - y_n3n6 + y_n1n6 >= - 1
y_n1n3 + y_n3n7 - y_n1n7 >= 0
- y_n1n3 - y_n3n7 + y_n1n7 >= - 1
y_n1n3 + y_n3n8 - y_n1n8 >= 0
- y_n1n3 - y_n3n8 + y_n1n8 >= - 1
y_n1n3 + y_n3n9 - y_n1n9 >= 0
- y_n1n3 - y_n3n9 + y_n1n9 >= - 1
y_n1n3 + y_n3n10 - y_n1n10 >= 0
- y_n1n3 - y_n3n10 + y_n1n10 >= - 1
y_n1n3 + y_n3n11 - y_n1n11 >= 0
- y_n1n3 - y_n3n11 + y_n1n11 >= - 1
y_n1n4 + y_n4n5 - y_n1n5 >= 0
- y_n1n4 - y_n4n5 + y_n1n5 >= - 1
y_n1n4 + y_n4n6 - y_n1n6 >= 0
- y_n1n4 - y_n4n6 + y_n1n6 >= - 1
y_n1n4 + y_n4n7 - y_n1n7 >= 0
- y_n1n4 - y_n4n7 + y_n1n7 >= - 1
y_n1n4 + y_n4n8 - y_n1n8 >= 0
- y_n1n4 - y_n4n8 + y_n1n8 >= - 1
y_n1n4 + y_n4n9 - y_n1n9 >= 0
- y_n1n4 - y_n4n9 + y_n1n9 >= - 1
y_n1n4 + y_n4n10 - y_n1n10 >= 0
- y_n1n4 - y_n4n10 + y_n1n10 >= - 1
y_n1n4 + y_n4n11 - y_n1n11 >= 0
- y_n1n4 - y_n4n11 + y_n1n11 >= - 1
y_n1n5 + y_n5n6 - y_n1n6 >= 0
- y_n1n5 - y_n5n6 + y_n1n6 >= - 1
y_n1n5 + y_n5n7 - y_n1n7 >= 0
- y_n1n5 - y_n5n7 + y_n1n7 >= - 1
y_n1n5 + y_n5n8 - y_n1n8 >= 0
- y_n1n5 - y_n5n8 + y_n1n8 >= - 1
y_n1n5 + y_n5n9 - y_n1n9 >= 0
- y_n1n5 - y_n5n9 + y_n1n9 >= - 1
y_n1n5 + y_n5n10 - y_n1n10 >= 0
- y_n1n5 - y_n5n10 + y_n1n10 >= - 1
y_n1n5 + y_n5n11 - y_n1n11 >= 0
- y_n1n5 - y_n5n11 + y_n1n11 >= - 1
y_n1n6 + y_n6n7 - y_n1n7 >= 0
- y_n1n6 - y_n6n7 + y_n1n7 >= - 1
y_n1n6 + y_n6n8 - y_n1n8 >= 0
- y_n1n6 - y_n6n8 + y_n1n8 >= - 1
y_n1n6 + y_n6n9 - y_n1n9 >= 0
- y_n1n6 - y_n6n9 + y_n1n9 >= - 1
y_n1n6 + y_n6n10 - y_n1n10 >= 0
- y_n1n6 - y_n6n10 + y_n1n10 >= - 1
y_n1n6 + y_n6n11 - y_n1n11 >= 0
- y_n1n6 - y_n6n11 + y_n1n11 >= - 1
y_n1n7 + y_n7n8 - y_n1n8 >= 0
- y_n1n7 - y_n7n8 + y_n1n8 >= - 1
y_n1n7 + y_n7n9 - y_n1n9 >= 0
- y_n1n7 - y_n7n9 + y_n1n9 >= - 1
y_n1n7 + y_n7n10 - y_n1n10 >= 0
- y_n1n7 - y_n7n10 + y_n1n10 >= - 1
y_n1n7 + y_n7n11 - y_n1n11 >= 0
- y_n1n7 - y_n7n11 + y_n1n11 >= - 1
y_n1n8 + y_n8n9 - y_n1n9 >= 0
- y_n1n8 - y_n8n9 + y_n1n9 >= - 1
y_n1n8 + y_n8n10 - y_n1n10 >= 0
- y_n1n8 - y_n8n10 + y_n1n10 >= - 1
y_n1n8 + y_n8n11 - y_n1n11 >= 0
- y_n1n8 - y_n8n11 + y_n1n11 >= - 1
y_n1n9 + y_n9n10 - y_n1n10 >= 0
- y_n1n9 - y_n9n10 + y_n1n10 >= - 1
y_n1n9 + y_n9n11 - y_n1n11 >= 0
- y_n1n9 - y_n9n11 + y_n1n11 >= - 1
y_n1n10 + y_n10n11 - y_n1n11 >= 0
- y_n1n10 - y_n10n11 + y_n1n11 >= - 1
y_n2n3 + y_n3n4 - y_n2n4 >= 0
- y_n2n3 - y_n3n4 + y_n2n4 >= - 1
y_n2n3 + y_n3n5 - y_n2n5 >= 0
- y_n2n3 - y_n3n5 + y_n2n5 >= - 1
y_n2n3 + y_n3n6 - y_n2n6 >= 0
- y_n2n3 - y_n3n6 + y_n2n6 >= - 1
y_n2n3 + y_n3n7 - y_n2n7 >= 0
- y_n2n3 - y_n3n7 + y_n2n7 >= - 1
y_n2n3 + y_n3n8 - y_n2n8 >= 0
- y_n2n3 - y_n3n8 + y_n2n8 >= - 1
y_n2n3 + y_n3n9 - y_n2n9 >= 0
- y_n2n3 - y_n3n9 + y_n2n9 >= - 1
y_n2n3 + y_n3n10 - y_n2n10 >= 0
- y_n2n3 - y_n3n10 + y_n2n10 >= - 1
y_n2n3 + y_n3n11 - y_n2n11 >= 0
- y_n2n3 - y_n3n11 + y_n2n11 >= - 1
y_n2n4 + y_n4n5 - y_n2n5 >= 0
- y_n2n4 - y_n4n5 + y_n2n5 >= - 1
y_n2n4 + y_n4n6 - y_n2n6 >= 0
- y_n2n4 - y_n4n6 + y_n2n6 >= - 1
y_n2n4 + y_n4n7 - y_n2n7 >= 0
- y_n2n4 - y_n4n7 + y_n2n7 >= - 1
y_n2n4 + y_n4n8 - y_n2n8 >= 0
- y_n2n4 - y_n4n8 + y_n2n8 >= - 1
y_n2n4 + y_n4n9 - y_n2n9 >= 0
- y_n2n4 - y_n4n9 + y_n2n9 >= - 1
y_n2n4 + y_n4n10 - y_n2n10 >= 0
- y_n2n4 - y_n4n10 + y_n2n10 >= - 1
y_n2n4 + y_n4n11 - y_n2n11 >= 0
- y_n2n4 - y_n4n11 + y_n2n11 >= - 1
y_n2n5 + y_n5n6 - y_n2n6 >= 0
- y_n2n5 - y_n5n6 + y_n2n6 >= - 1
y_n2n5 + y_n5n7 - y_n2n7 >= 0
- y_n2n5 - y_n5n7 + y_n2n7 >= - 1
y_n2n5 + y_n5n8 - y_n2n8 >= 0
- y_n2n5 - y_n5n8 + y_n2n8 >= - 1
y_n2n5 + y_n5n9 - y_n2n9 >= 0
- y_n2n5 - y_n5n9 + y_n2n9 >= - 1
y_n2n5 + y_n5n10 - y_n2n10 >= 0
- y_n2n5 - y_n5n10 + y_n2n10 >= - 1
y_n2n5 + y_n5n11 - y_n2n11 >= 0
- y_n2n5 - y_n5n11 + y_n2n11 >= - 1
y_n2n6 + y_n6n7 - y_n2n7 >= 0
- y_n2n6 - y_n6n7 + y_n2n7 >= - 1
y_n2n6 + y_n6n8 - y_n2n8 >= 0
- y_n2n6 - y_n6n8 + y_n2n8 >= - 1
y_n2n6 + y_n6n9 - y_n2n9 >= 0
- y_n2n6 - y_n6n9 + y_n2n9 >= - 1
y_n2n6 + y_n6n10 - y_n2n10 >= 0
- y_n2n6 - y_n6n10 + y_n2n10 >= - 1
y_n2n6 + y_n6n11 - y_n2n11 >= 0
- y_n2n6 - y_n6n11 + y_n2n11 >= - 1
y_n2n7 + y_n7n8 - y_n2n8 >= 0
- y_n2n7 - y_n7n8 + y_n2n8 >= - 1
y_n2n7 + y_n7n9 - y_n2n9 >= 0
- y_n2n7 - y_n7n9 + y_n2n9 >= - 1
y_n2n7 + y_n7n10 - y_n2n10 >= 0
- y_n2n7 - y_n7n10 + y_n2n10 >= - 1
y_n2n7 + y_n7n11 - y_n2n11 >= 0
- y_n2n7 - y_n7n11 + y_n2n11 >= - 1
y_n2n8 + y_n8n9 - y_n2n9 >= 0
- y_n2n8 - y_n8n9 + y_n2n9 >= - 1
y_n2n8 + y_n8n10 - y_n2n10 >= 0
- y_n2n8 - y_n8n10 + y_n2n10 >= - 1
y_n2n8 + y_n8n11 - y_n2n11 >= 0
- y_n2n8 - y_n8n11 + y_n2n11 >= - 1
y_n2n9 + y_n9n10 - y_n2n10 >= 0
- y_n2n9 - y_n9n10 + y_n2n10 >= - 1
y_n2n9 + y_n9n11 - y_n2n11 >= 0
- y_n2n9 - y_n9n11 + y_n2n11 >= - 1
y_n2n10 + y_n10n11 - y_n2n11 >= 0
- y_n2n10 - y_n10n11 + y_n2n11 >= - 1
y_n3n4 + y_n4n5 - y_n3n5 >= 0
- y_n3n4 - y_n4n5 + y_n3n5 >= - 1
y_n3n4 + y_n4n6 - y_n3n6 >= 0
- y_n3n4 - y_n4n6 + y_n3n6 >= - 1
y_n3n4 + y_n4n7 - y_n3n7 >= 0
- y_n3n4 - y_n4n7 + y_n3n7 >= - 1
y_n3n4 + y_n4n8 - y_n3n8 >= 0
- y_n3n4 - y_n4n8 + y_n3n8 >= - 1
y_n3n4 + y_n4n9 - y_n3n9 >= 0
- y_n3n4 - y_n4n9 + y_n3n9 >= - 1
y_n3n4 + y_n4n10 - y_n3n10 >= 0
- y_n3n4 - y_n4n10 + y_n3n10 >= - 1
y_n3n4 + y_n4n11 - y_n3n11 >= 0
- y_n3n4 - y_n4n11 + y_n3n11 >= - 1
y_n3n5 + y_n5n6 - y_n3n6 >= 0
- y_n3n5 - y_n5n6 + y_n3n6 >= - 1
y_n3n5 + y_n5n7 - y_n3n7 >= 0
- y_n3n5 - y_n5n7 + y_n3n7 >= - 1
y_n3n5 + y_n5n8 - y_n3n8 >= 0
- y_n3n5 - y_n5n8 + y_n3n8 >= - 1
y_n3n5 + y_n5n9 - y_n3n9 >= 0
- y_n3n5 - y_n5n9 + y_n3n9 >= - 1
y_n3n5 + y_n5n10 - y_n3n10 >= 0
- y_n3n5 - y_n5n10 + y_n3n10 >= - 1
y_n3n5 + y_n5n11 - y_n3n11 >= 0
- y_n3n5 - y_n5n11 + y_n3n11 >= - 1
y_n3n6 + y_n6n7 - y_n3n7 >= 0
- y_n3n6 - y_n6n7 + y_n3n7 >= - 1
y_n3n6 + y_n6n8 - y_n3n8 >= 0
- y_n3n6 - y_n6n8 + y_n3n8 >= - 1
y_n3n6 + y_n6n9 - y_n3n9 >= 0
- y_n3n6 - y_n6n9 + y_n3n9 >= - 1
y_n3n6 + y_n6n10 - y_n3n10 >= 0
- y_n3n6 - y_n6n10 + y_n3n10 >= - 1
y_n3n6 + y_n6n11 - y_n3n11 >= 0
- y_n3n6 - y_n6n11 + y_n3n11 >= - 1
y_n3n7 + y_n7n8 - y_n3n8 >= 0
- y_n3n7 - y_n7n8 + y_n3n8 >= - 1
y_n3n7 + y_n7n9 - y_n3n9 >= 0
- y_n3n7 - y_n7n9 + y_n3n9 >= - 1
y_n3n7 + y_n7n10 - y_n3n10 >= 0
- y_n3n7 - y_n7n10 + y_n3n10 >= - 1
y_n3n7 + y_n7n11 - y_n3n11 >= 0
- y_n3n7 - y_n7n11 + y_n3n11 >= - 1
y_n3n8 + y_n8n9 - y_n3n9 >= 0
- y_n3n8 - y_n8n9 + y_n3n9 >= - 1
y_n3n8 + y_n8n10 - y_n3n10 >= 0
- y_n3n8 - y_n8n10 + y_n3n10 >= - 1
y_n3n8 + y_n8n11 - y_n3n11 >= 0
- y_n3n8 - y_n8n11 + y_n3n11 >= - 1
y_n3n9 + y_n9n10 - y_n3n10 >= 0
- y_n3n9 - y_n9n10 + y_n3n10 >= - 1
y_n3n9 + y_n9n11 - y_n3n11 >= 0
- y_n3n9 - y_n9n11 + y_n3n11 >= - 1
y_n3n10 + y_n10n11 - y_n3n11 >= 0
- y_n3n10 - y_n10n11 + y_n3n11 >= - 1
y_n4n5 + y_n5n6 - y_n4n6 >= 0
- y_n4n5 - y_n5n6 + y_n4n6 >= - 1
y_n4n5 + y_n5n7 - y_n4n7 >= 0
- y_n4n5 - y_n5n7 + y_n4n7 >= - 1
y_n4n5 + y_n5n8 - y_n4n8 >= 0
- y_n4n5 - y_n5n8 + y_n4n8 >= - 1
y_n4n5 + y_n5n9 - y_n4n9 >= 0
- y_n4n5 - y_n5n9 + y_n4n9 >= - 1
y_n4n5 + y_n5n10 - y_n4n10 >= 0
- y_n4n5 - y_n5n10 + y_n4n10 >= - 1
y_n4n5 + y_n5n11 - y_n4n11 >= 0
- y_n4n5 - y_n5n11 + y_n4n11 >= - 1
y_n4n6 + y_n6n7 - y_n4n7 >= 0
- y_n4n6 - y_n6n7 + y_n4n7 >= - 1
y_n4n6 + y_n6n8 - y_n4n8 >= 0
- y_n4n6 - y_n6n8 + y_n4n8 >= - 1
y_n4n6 + y_n6n9 - y_n4n9 >= 0
- y_n4n6 - y_n6n9 + y_n4n9 >= - 1
y_n4n6 + y_n6n10 - y_n4n10 >= 0
- y_n4n6 - y_n6n10 + y_n4n10 >= - 1
y_n4n6 + y_n6n11 - y_n4n11 >= 0
- y_n4n6 - y_n6n11 + y_n4n11 >= - 1
y_n4n7 + y_n7n8 - y_n4n8 >= 0
- y_n4n7 - y_n7n8 + y_n4n8 >= - 1
y_n4n7 + y_n7n9 - y_n4n9 >= 0
- y_n4n7 - y_n7n9 + y_n4n9 >= - 1
y_n4n7 + y_n7n10 - y_n4n10 >= 0
- y_n4n7 - y_n7n10 + y_n4n10 >= - 1
y_n4n7 + y_n7n11 - y_n4n11 >= 0
- y_n4n7 - y_n7n11 + y_n4n11 >= - 1
y_n4n8 + y_n8n9 - y_n4n9 >= 0
- y_n4n8 - y_n8n9 + y_n4n9 >= - 1
y_n4n8 + y_n8n10 - y_n4n10 >= 0
- y_n4n8 - y_n8n10 + y_n4n10 >= - 1
y_n4n8 + y_n8n11 - y_n4n11 >= 0
- y_n4n8 - y_n8n11 + y_n4n11 >= - 1
y_n4n9 + y_n9n10 - y_n4n10 >= 0
- y_n4n9 - y_n9n10 + y_n4n10 >= - 1
y_n4n9 + y_n9n11 - y_n4n11 >= 0
- y_n4n9 - y_n9n11 + y_n4n11 >= - 1
y_n4n10 + y_n10n11 - y_n4n11 >= 0
- y_n4n10 - y_n10n11 + y_n4n11 >= - 1
y_n5n6 + y_n6n7 - y_n5n7 >= 0
- y_n5n6 - y_n6n7 + y_n5n7 >= - 1
y_n5n6 + y_n6n8 - y_n5n8 >= 0
- y_n5n6 - y_n6n8 + y_n5n8 >= - 1
y_n5n6 + y_n6n9 - y_n5n9 >= 0
- y_n5n6 - y_n6n9 + y_n5n9 >= - 1
y_n5n6 + y_n6n10 - y_n5n10 >= 0
- y_n5n6 - y_n6n10 + y_n5n10 >= - 1
y_n5n6 + y_n6n11 - y_n5n11 >= 0
- y_n5n6 - y_n6n11 + y_n5n11 >= - 1
y_n5n7 + y_n7n8 - y_n5n8 >= 0
- y_n5n7 - y_n7n8 + y_n5n8 >= - 1
y_n5n7 + y_n7n9 - y_n5n9 >= 0
- y_n5n7 - y_n7n9 + y_n5n9 >= - 1
y_n5n7 + y_n7n10 - y_n5n10 >= 0
- y_n5n7 - y_n7n10 + y_n5n10 >= - 1
y_n5n7 + y_n7n11 - y_n5n11 >= 0
- y_n5n7 - y_n7n11 + y_n5n11 >= - 1
y_n5n8 + y_n8n9 - y_n5n9 >= 0
- y_n5n8 - y_n8n9 + y_n5n9 >= - 1
y_n5n8 + y_n8n10 - y_n5n10 >= 0
- y_n5n8 - y_n8n10 + y_n5n10 >= - 1
y_n5n8 + y_n8n11 - y_n5n11 >= 0
- y_n5n8 - y_n8n11 + y_n5n11 >= - 1
y_n5n9 + y_n9n10 - y_n5n10 >= 0
- y_n5n9 - y_n9n10 + y_n5n10 >= - 1
y_n5n9 + y_n9n11 - y_n5n11 >= 0
- y_n5n9 - y_n9n11 + y_n5n11 >= - 1
y_n5n10 + y_n10n11 - y_n5n11 >= 0
- y_n5n10 - y_n10n11 + y_n5n11 >= - 1
y_n6n7 + y_n7n8 - y_n6n8 >= 0
- y_n6n7 - y_n7n8 + y_n6n8 >= - 1
y_n6n7 + y_n7n9 - y_n6n9 >= 0
- y_n6n7 - y_n7n9 + y_n6n9 >= - 1
y_n6n7 + y_n7n10 - y_n6n10 >= 0
- y_n6n7 - y_n7n10 + y_n6n10 >= - 1
y_n6n7 + y_n7n11 - y_n6n11 >= 0
- y_n6n7 - y_n7n11 + y_n6n11 >= - 1
y_n6n8 + y_n8n9 - y_n6n9 >= 0
- y_n6n8 - y_n8n9 + y_n6n9 >= - 1
y_n6n8 + y_n8n10 - y_n6n10 >= 0
- y_n6n8 - y_n8n10 + y_n6n10 >= - 1
y_n6n8 + y_n8n11 - y_n6n11 >= 0
- y_n6n8 - y_n8n11 + y_n6n11 >= - 1
y_n6n9 + y_n9n10 - y_n6n10 >= 0
- y_n6n9 - y_n9n10 + y_n6n10 >= - 1
y_n6n9 + y_n9n11 - y_n6n11 >= 0
- y_n6n9 - y_n9n11 + y_n6n11 >= - 1
y_n6n10 + y_n10n11 - y_n6n11 >= 0
- y_n6n10 - y_n10n11 + y_n6n11 >= - 1
y_n7n8 + y_n8n9 - y_n7n9 >= 0
- y_n7n8 - y_n8n9 + y_n7n9 >= - 1
y_n7n8 + y_n8n10 - y_n7n10 >= 0
- y_n7n8 - y_n8n10 + y_n7n10 >= - 1
y_n7n8 + y_n8n11 - y_n7n11 >= 0
- y_n7n8 - y_n8n11 + y_n7n11 >= - 1
y_n7n9 + y_n9n10 - y_n7n10 >= 0
- y_n7n9 - y_n9n10 + y_n7n10 >= - 1
y_n7n9 + y_n9n11 - y_n7n11 >= 0
- y_n7n9 - y_n9n11 + y_n7n11 >= - 1
y_n7n10 + y_n10n11 - y_n7n11 >= 0
- y_n7n10 - y_n10n11 + y_n7n11 >= - 1
y_n8n9 + y_n9n10 - y_n8n10 >= 0
- y_n8n9 - y_n9n10 + y_n8n10 >= - 1
y_n8n9 + y_n9n11 - y_n8n11 >= 0
- y_n8n9 - y_n9n11 + y_n8n11 >= - 1
y_n8n10 + y_n10n11 - y_n8n11 >= 0
- y_n8n10 - y_n10n11 + y_n8n11 >= - 1
y_n9n10 + y_n10n11 - y_n9n11 >= 0
- y_n9n10 - y_n10n11 + y_n9n11 >= - 1
pos_e2 + x_e2e3 + x_e2e5 + x_e2e7 + x_e2e6 + x_e2e8 + x_e2e11 = 6
pos_e3 - x_e2e3 + x_e3e5 + x_e3e7 + x_e3e6 + x_e3e8 + x_e3e11 = 5
pos_e5 - x_e2e5 - x_e3e5 + x_e5e7 + x_e5e6 + x_e5e8 + x_e5e11 = 4
pos_e7 - x_e2e7 - x_e3e7 - x_e5e7 + x_e7e6 + x_e7e8 + x_e7e11 = 3
pos_e6 - x_e2e6 - x_e3e6 - x_e5e6 - x_e7e6 + x_e6e8 + x_e6e11 = 2
pos_e8 - x_e2e8 - x_e3e8 - x_e5e8 - x_e7e8 - x_e6e8 + x_e8e11 = 1
pos_e11 - x_e2e11 - x_e3e11 - x_e5e11 - x_e7e11 - x_e6e11 - x_e8e11 = 0
pos_e3 - pos_e2 + 50 z_e2e3 <= 51.01
pos_e3 - pos_e2 - 50 z_e2e3 >= -49.01
pos_e2 <= 7
pos_e3 <= 7
pos_e5 - pos_e2 + 50 z_e2e5 <= 51.01
pos_e5 - pos_e2 - 50 z_e2e5 >= -49.01
pos_e2 <= 7
pos_e5 <= 7
pos_e2 - pos_e3 + 50 z_e3e2 <= 51.01
pos_e2 - pos_e3 - 50 z_e3e2 >= -49.01
pos_e3 <= 7
pos_e2 <= 7
pos_e5 - pos_e3 + 50 z_e3e5 <= 51.01
pos_e5 - pos_e3 - 50 z_e3e5 >= -49.01
pos_e3 <= 7
pos_e5 <= 7
pos_e2 - pos_e5 + 50 z_e5e2 <= 51.01
pos_e2 - pos_e5 - 50 z_e5e2 >= -49.01
pos_e5 <= 7
pos_e2 <= 7
pos_e3 - pos_e5 + 50 z_e5e3 <= 51.01
pos_e3 - pos_e5 - 50 z_e5e3 >= -49.01
pos_e5 <= 7
pos_e3 <= 7
pos_e6 - pos_e7 + 50 z_e7e6 <= 51.01
pos_e6 - pos_e7 - 50 z_e7e6 >= -49.01
pos_e7 <= 7
pos_e6 <= 7
pos_e8 - pos_e7 + 50 z_e7e8 <= 51.01
pos_e8 - pos_e7 - 50 z_e7e8 >= -49.01
pos_e7 <= 7
pos_e8 <= 7
pos_e11 - pos_e7 + 50 z_e7e11 <= 51.01
pos_e11 - pos_e7 - 50 z_e7e11 >= -49.01
pos_e7 <= 7
pos_e11 <= 7
pos_e7 - pos_e6 + 50 z_e6e7 <= 51.01
pos_e7 - pos_e6 - 50 z_e6e7 >= -49.01
pos_e6 <= 7
pos_e7 <= 7
pos_e8 - pos_e6 + 50 z_e6e8 <= 51.01
pos_e8 - pos_e6 - 50 z_e6e8 >= -49.01
pos_e6 <= 7
pos_e8 <= 7
pos_e11 - pos_e6 + 50 z_e6e11 <= 51.01
pos_e11 - pos_e6 - 50 z_e6e11 >= -49.01
pos_e6 <= 7
pos_e11 <= 7
pos_e7 - pos_e8 + 50 z_e8e7 <= 51.01
pos_e7 - pos_e8 - 50 z_e8e7 >= -49.01
pos_e8 <= 7
pos_e7 <= 7
pos_e6 - pos_e8 + 50 z_e8e6 <= 51.01
pos_e6 - pos_e8 - 50 z_e8e6 >= -49.01
pos_e8 <= 7
pos_e6 <= 7
pos_e11 - pos_e8 + 50 z_e8e11 <= 51.01
pos_e11 - pos_e8 - 50 z_e8e11 >= -49.01
pos_e8 <= 7
pos_e11 <= 7
pos_e7 - pos_e11 + 50 z_e11e7 <= 51.01
pos_e7 - pos_e11 - 50 z_e11e7 >= -49.01
pos_e11 <= 7
pos_e7 <= 7
pos_e6 - pos_e11 + 50 z_e11e6 <= 51.01
pos_e6 - pos_e11 - 50 z_e11e6 >= -49.01
pos_e11 <= 7
pos_e6 <= 7
pos_e8 - pos_e11 + 50 z_e11e8 <= 51.01
pos_e8 - pos_e11 - 50 z_e11e8 >= -49.01
pos_e11 <= 7
pos_e8 <= 7
c_n2_e2_e3_e5_ - z_e2e3 <= 0
c_n2_e2_e3_e5_ - z_e3e5 <= 0
c_n2_e2_e3_e5_ - y_n6n7 <= 0
c_n2_e2_e3_e5_ - y_n7n8 <= 0
c_n2_e2_e3_e5_ - z_e2e3 - z_e3e5 - y_n6n7 - y_n7n8 >= - 3
c_n9_e6_e7_e8_ - z_e6e7 <= 0
c_n9_e6_e7_e8_ - z_e7e8 <= 0
c_n9_e6_e7_e8_ - y_n3n4 <= 0
c_n9_e6_e7_e8_ - y_n4n7 <= 0
c_n9_e6_e7_e8_ - z_e6e7 - z_e7e8 - y_n3n4 - y_n4n7 >= - 3
c_n9_e6_e7_e11_ - z_e6e7 <= 0
c_n9_e6_e7_e11_ - z_e7e11 <= 0
c_n9_e6_e7_e11_ - y_n3n4 <= 0
c_n9_e6_e7_e11_ - y_n4n11 <= 0
c_n9_e6_e7_e11_ - z_e6e7 - z_e7e11 - y_n3n4 - y_n4n11 >= - 3
c_n9_e7_e8_e11_ - z_e7e8 <= 0
c_n9_e7_e8_e11_ - z_e8e11 <= 0
c_n9_e7_e8_e11_ - y_n3n7 <= 0
c_n9_e7_e8_e11_ - y_n7n11 <= 0
c_n9_e7_e8_e11_ - z_e7e8 - z_e8e11 - y_n3n7 - y_n7n11 >= - 3
c_n9_e6_e8_e11_ - z_e6e8 <= 0
c_n9_e6_e8_e11_ - z_e8e11 <= 0
c_n9_e6_e8_e11_ - y_n4n7 <= 0
c_n9_e6_e8_e11_ - y_n7n11 <= 0
c_n9_e6_e8_e11_ - z_e6e8 - z_e8e11 - y_n4n7 - y_n7n11 >= - 3
c_n9_e6_e7_e8_ + c_n9_e6_e7_e11_ + c_n9_e7_e8_e11_ <= 2
c_n9_e6_e7_e8_ + c_n9_e6_e7_e11_ + c_n9_e6_e8_e11_ <= 2
c_n9_e6_e7_e8_ + c_n9_e7_e8_e11_ + c_n9_e6_e8_e11_ <= 2
c_n9_e6_e7_e11_ + c_n9_e7_e8_e11_ + c_n9_e6_e8_e11_ <= 2
c_n9_e7_e6_e11_ = 1
Binaries
  x_e2e3 x_e2e5 x_e2e7 x_e2e6 x_e2e8 x_e2e11 x_e3e5 x_e3e7 x_e3e6 x_e3e8 x_e3e11 x_e5e7 x_e5e6 x_e5e8 x_e5e11 x_e7e6 x_e7e8 x_e7e11 x_e6e8 x_e6e11 x_e8e11 y_n0n1 y_n0n2 y_n0n3 y_n0n4 y_n0n5 y_n0n6 y_n0n7 y_n0n8 y_n0n9 y_n0n10 y_n0n11 y_n1n2 y_n1n3 y_n1n4 y_n1n5 y_n1n6 y_n1n7 y_n1n8 y_n1n9 y_n1n10 y_n1n11 y_n2n3 y_n2n4 y_n2n5 y_n2n6 y_n2n7 y_n2n8 y_n2n9 y_n2n10 y_n2n11 y_n3n4 y_n3n5 y_n3n6 y_n3n7 y_n3n8 y_n3n9 y_n3n10 y_n3n11 y_n4n5 y_n4n6 y_n4n7 y_n4n8 y_n4n9 y_n4n10 y_n4n11 y_n5n6 y_n5n7 y_n5n8 y_n5n9 y_n5n10 y_n5n11 y_n6n7 y_n6n8 y_n6n9 y_n6n10 y_n6n11 y_n7n8 y_n7n9 y_n7n10 y_n7n11 y_n8n9 y_n8n10 y_n8n11 y_n9n10 y_n9n11 y_n10n11 z_e2e3 z_e2e5 z_e3e2 z_e3e5 z_e5e2 z_e5e3 z_e7e6 z_e7e8 z_e7e11 z_e6e7 z_e6e8 z_e6e11 z_e8e7 z_e8e6 z_e8e11 z_e11e7 z_e11e6 z_e11e8 c_n2_e2_e3_e5_ c_n9_e6_e7_e8_ c_n9_e6_e7_e11_ c_n9_e7_e8_e11_ c_n9_e6_e8_e11_
End
